NAME : CMT05Q
TYPE : MVRPB
DIMENSION : 200
VEHICLES : 12
CAPACITY : 200
EDGE_WEIGHT_TYPE : EXACT_2D
NODE_COORD_SECTION
1 35 35
2 22 22
3 36 26
4 21 45
5 45 35
6 55 20
7 33 34
8 50 50
9 55 45
10 26 59
11 40 66
12 55 65
13 35 51
14 62 35
15 62 57
16 62 24
17 21 36
18 33 44
19 9 56
20 62 48
21 66 14
22 44 13
23 26 13
24 11 28
25 7 43
26 17 64
27 41 46
28 55 34
29 35 16
30 52 26
31 43 26
32 31 76
33 22 53
34 26 29
35 50 40
36 55 50
37 54 10
38 60 15
39 47 66
40 30 60
41 30 50
42 12 17
43 15 14
44 16 19
45 21 48
46 50 30
47 51 42
48 50 15
49 48 21
50 12 38
51 37 52
52 49 49
53 52 64
54 20 26
55 40 30
56 21 47
57 17 63
58 31 62
59 52 33
60 51 21
61 42 41
62 31 32
63 5 25
64 12 42
65 36 16
66 52 41
67 27 23
68 17 33
69 13 13
70 57 58
71 62 42
72 42 57
73 16 57
74 8 52
75 7 38
76 27 68
77 30 48
78 43 67
79 58 48
80 58 27
81 37 69
82 38 46
83 46 10
84 61 33
85 62 63
86 63 69
87 32 22
88 45 35
89 59 15
90 5 6
91 10 17
92 21 10
93 5 64
94 30 15
95 39 10
96 32 39
97 25 32
98 25 55
99 48 28
100 56 37
101 41 49
102 35 17
103 55 45
104 55 20
105 15 30
106 25 30
107 20 50
108 10 43
109 55 60
110 30 60
111 20 65
112 50 35
113 30 25
114 15 10
115 30 5
116 10 20
117 5 30
118 20 40
119 15 60
120 45 65
121 45 20
122 45 10
123 55 5
124 65 35
125 65 20
126 45 30
127 35 40
128 41 37
129 64 42
130 40 60
131 31 52
132 35 69
133 53 52
134 65 55
135 63 65
136 2 60
137 20 20
138 5 5
139 60 12
140 40 25
141 42 7
142 24 12
143 23 3
144 11 14
145 6 38
146 2 48
147 8 56
148 13 52
149 6 68
150 47 47
151 49 58
152 27 43
153 37 31
154 57 29
155 63 23
156 53 12
157 32 12
158 36 26
159 21 24
160 17 34
161 12 24
162 24 58
163 27 69
164 15 77
165 62 77
166 49 73
167 67 5
168 56 39
169 37 47
170 37 56
171 57 68
172 47 16
173 44 17
174 46 13
175 49 11
176 49 42
177 53 43
178 61 52
179 57 48
180 56 37
181 55 54
182 15 47
183 14 37
184 11 31
185 16 22
186 4 18
187 28 18
188 26 52
189 26 35
190 31 67
191 15 19
192 22 22
193 18 24
194 26 27
195 25 24
196 22 27
197 25 21
198 19 21
199 20 26
200 18 18
PICKUP_AND_DELIVERY_SECTION
1 0 0 10000000 0 0 0
2 0 0 10000000 0 0 18
3 0 0 10000000 0 0 26
4 0 0 10000000 0 0 11
5 0 0 10000000 0 30 0
6 0 0 10000000 0 0 21
7 0 0 10000000 0 0 19
8 0 0 10000000 0 0 15
9 0 0 10000000 0 16 0
10 0 0 10000000 0 0 29
11 0 0 10000000 0 0 26
12 0 0 10000000 0 0 37
13 0 0 10000000 0 16 0
14 0 0 10000000 0 0 12
15 0 0 10000000 0 0 31
16 0 0 10000000 0 0 8
17 0 0 10000000 0 19 0
18 0 0 10000000 0 0 20
19 0 0 10000000 0 0 13
20 0 0 10000000 0 0 15
21 0 0 10000000 0 22 0
22 0 0 10000000 0 0 28
23 0 0 10000000 0 0 12
24 0 0 10000000 0 0 6
25 0 0 10000000 0 27 0
26 0 0 10000000 0 0 14
27 0 0 10000000 0 0 18
28 0 0 10000000 0 0 17
29 0 0 10000000 0 29 0
30 0 0 10000000 0 0 13
31 0 0 10000000 0 0 22
32 0 0 10000000 0 0 25
33 0 0 10000000 0 28 0
34 0 0 10000000 0 0 27
35 0 0 10000000 0 0 19
36 0 0 10000000 0 0 10
37 0 0 10000000 0 12 0
38 0 0 10000000 0 0 14
39 0 0 10000000 0 0 24
40 0 0 10000000 0 0 16
41 0 0 10000000 0 33 0
42 0 0 10000000 0 0 15
43 0 0 10000000 0 0 11
44 0 0 10000000 0 0 18
45 0 0 10000000 0 17 0
46 0 0 10000000 0 0 21
47 0 0 10000000 0 0 27
48 0 0 10000000 0 0 19
49 0 0 10000000 0 20 0
50 0 0 10000000 0 0 5
51 0 0 10000000 0 0 7
52 0 0 10000000 0 0 30
53 0 0 10000000 0 16 0
54 0 0 10000000 0 0 9
55 0 0 10000000 0 0 21
56 0 0 10000000 0 0 15
57 0 0 10000000 0 19 0
58 0 0 10000000 0 0 23
59 0 0 10000000 0 0 11
60 0 0 10000000 0 0 5
61 0 0 10000000 0 19 0
62 0 0 10000000 0 0 29
63 0 0 10000000 0 0 23
64 0 0 10000000 0 0 21
65 0 0 10000000 0 10 0
66 0 0 10000000 0 0 15
67 0 0 10000000 0 0 3
68 0 0 10000000 0 0 41
69 0 0 10000000 0 9 0
70 0 0 10000000 0 0 28
71 0 0 10000000 0 0 8
72 0 0 10000000 0 0 8
73 0 0 10000000 0 16 0
74 0 0 10000000 0 0 10
75 0 0 10000000 0 0 28
76 0 0 10000000 0 0 7
77 0 0 10000000 0 15 0
78 0 0 10000000 0 0 14
79 0 0 10000000 0 0 6
80 0 0 10000000 0 0 19
81 0 0 10000000 0 11 0
82 0 0 10000000 0 0 12
83 0 0 10000000 0 0 23
84 0 0 10000000 0 0 26
85 0 0 10000000 0 17 0
86 0 0 10000000 0 0 6
87 0 0 10000000 0 0 9
88 0 0 10000000 0 0 15
89 0 0 10000000 0 14 0
90 0 0 10000000 0 0 7
91 0 0 10000000 0 0 27
92 0 0 10000000 0 0 13
93 0 0 10000000 0 11 0
94 0 0 10000000 0 0 16
95 0 0 10000000 0 0 10
96 0 0 10000000 0 0 5
97 0 0 10000000 0 25 0
98 0 0 10000000 0 0 17
99 0 0 10000000 0 0 18
100 0 0 10000000 0 0 10
101 0 0 10000000 0 10 0
102 0 0 10000000 0 0 7
103 0 0 10000000 0 0 13
104 0 0 10000000 0 0 19
105 0 0 10000000 0 26 0
106 0 0 10000000 0 0 3
107 0 0 10000000 0 0 5
108 0 0 10000000 0 0 9
109 0 0 10000000 0 16 0
110 0 0 10000000 0 0 16
111 0 0 10000000 0 0 12
112 0 0 10000000 0 0 19
113 0 0 10000000 0 23 0
114 0 0 10000000 0 0 20
115 0 0 10000000 0 0 8
116 0 0 10000000 0 0 19
117 0 0 10000000 0 2 0
118 0 0 10000000 0 0 12
119 0 0 10000000 0 0 17
120 0 0 10000000 0 0 9
121 0 0 10000000 0 11 0
122 0 0 10000000 0 0 18
123 0 0 10000000 0 0 29
124 0 0 10000000 0 0 3
125 0 0 10000000 0 6 0
126 0 0 10000000 0 0 17
127 0 0 10000000 0 0 16
128 0 0 10000000 0 0 16
129 0 0 10000000 0 9 0
130 0 0 10000000 0 0 21
131 0 0 10000000 0 0 27
132 0 0 10000000 0 0 23
133 0 0 10000000 0 11 0
134 0 0 10000000 0 0 14
135 0 0 10000000 0 0 8
136 0 0 10000000 0 0 5
137 0 0 10000000 0 8 0
138 0 0 10000000 0 0 16
139 0 0 10000000 0 0 31
140 0 0 10000000 0 0 9
141 0 0 10000000 0 5 0
142 0 0 10000000 0 0 5
143 0 0 10000000 0 0 7
144 0 0 10000000 0 0 18
145 0 0 10000000 0 16 0
146 0 0 10000000 0 0 1
147 0 0 10000000 0 0 27
148 0 0 10000000 0 0 36
149 0 0 10000000 0 30 0
150 0 0 10000000 0 0 13
151 0 0 10000000 0 0 10
152 0 0 10000000 0 0 9
153 0 0 10000000 0 14 0
154 0 0 10000000 0 0 18
155 0 0 10000000 0 0 2
156 0 0 10000000 0 0 6
157 0 0 10000000 0 7 0
158 0 0 10000000 0 0 18
159 0 0 10000000 0 0 28
160 0 0 10000000 0 0 3
161 0 0 10000000 0 13 0
162 0 0 10000000 0 0 19
163 0 0 10000000 0 0 10
164 0 0 10000000 0 0 9
165 0 0 10000000 0 20 0
166 0 0 10000000 0 0 25
167 0 0 10000000 0 0 25
168 0 0 10000000 0 0 36
169 0 0 10000000 0 6 0
170 0 0 10000000 0 0 5
171 0 0 10000000 0 0 15
172 0 0 10000000 0 0 25
173 0 0 10000000 0 9 0
174 0 0 10000000 0 0 8
175 0 0 10000000 0 0 18
176 0 0 10000000 0 0 13
177 0 0 10000000 0 14 0
178 0 0 10000000 0 0 3
179 0 0 10000000 0 0 23
180 0 0 10000000 0 0 6
181 0 0 10000000 0 26 0
182 0 0 10000000 0 0 16
183 0 0 10000000 0 0 11
184 0 0 10000000 0 0 7
185 0 0 10000000 0 41 0
186 0 0 10000000 0 0 35
187 0 0 10000000 0 0 26
188 0 0 10000000 0 0 9
189 0 0 10000000 0 15 0
190 0 0 10000000 0 0 3
191 0 0 10000000 0 0 1
192 0 0 10000000 0 0 2
193 0 0 10000000 0 22 0
194 0 0 10000000 0 0 27
195 0 0 10000000 0 0 20
196 0 0 10000000 0 0 11
197 0 0 10000000 0 12 0
198 0 0 10000000 0 0 10
199 0 0 10000000 0 0 9
200 0 0 10000000 0 0 17
DEPOT_SECTION
1 
-1
EOF
